N = 50;
E = 63;
M = 9;
mandatory = array1d(1..9, [48, 49, 22, 35, 27, 12, 37, 34, 24]);
from = array1d(1..63, [2, 2, 2, 4, 7, 11, 14, 17, 17, 18, 18, 18, 19, 20, 20, 20, 20, 20, 20, 20, 21, 21, 21, 22, 22, 22, 22, 22, 25, 27, 28, 28, 29, 29, 30, 30, 30, 33, 34, 34, 36, 36, 36, 36, 36, 36, 40, 40, 41, 41, 41, 41, 41, 41, 42, 42, 44, 44, 45, 45, 47, 47, 50]);
to = array1d(1..63, [8, 21, 32, 5, 29, 3, 31, 6, 42, 19, 28, 43, 2, 7, 14, 16, 27, 38, 40, 48, 12, 17, 18, 10, 20, 21, 40, 43, 34, 34, 5, 24, 9, 33, 5, 15, 16, 35, 20, 30, 2, 4, 11, 39, 49, 50, 15, 23, 1, 22, 25, 36, 44, 47, 6, 46, 24, 39, 26, 28, 37, 45, 13]);
weight = array1d(1..63, [8, 7, 2, 8, 7, 7, 9, 7, 6, 2, 1, 1, 5, 3, 7, 8, 2, 8, 10, 2, 7, 5, 10, 6, 2, 2, 8, 7, 4, 4, 8, 5, 5, 7, 4, 1, 2, 3, 10, 2, 8, 6, 9, 7, 9, 10, 10, 3, 5, 8, 5, 2, 7, 7, 9, 10, 8, 3, 6, 1, 3, 10, 1]);
